(declare-const x Real)
(declare-fun r () Real)
(declare-fun r5 () Real)
(declare-fun r7 () Real)
(declare-fun r8 () Real)
(declare-fun v () Bool)
(assert (or (not v) (= 0.0 (/ (- r8 x) (- r8)))))
(assert (and (= 0.0 (+ 1.0 (* r7 r5))) (= 0.0 (- 1.0 (- (* r 3 (/ (- r) r7)))))))
(check-sat)
